
Gurobi 6.5.2 (linux64) logging started Wed Sep 14 14:58:49 2016

Optimize a model with 41 rows, 153 columns and 313 nonzeros
Coefficient statistics:
  Matrix range    [1e+00, 2e+00]
  Objective range [1e+00, 1e+02]
  Bounds range    [1e+00, 1e+00]
  RHS range       [1e+00, 1e+00]
Presolve removed 18 rows and 14 columns
Presolve time: 0.00s
Presolved: 23 rows, 139 columns, 280 nonzeros
Variable types: 0 continuous, 139 integer (139 binary)

Root relaxation: objective 5.210000e+02, 27 iterations, 0.00 seconds

    Nodes    |    Current Node    |     Objective Bounds      |     Work
 Expl Unexpl |  Obj  Depth IntInf | Incumbent    BestBd   Gap | It/Node Time

     0     0  521.00000    0    6          -  521.00000      -     -    0s
     0     0  523.25000    0    8          -  523.25000      -     -    0s
     0     0  524.50000    0   11          -  524.50000      -     -    0s
     0     0  525.33333    0   10          -  525.33333      -     -    0s
     0     2  525.33333    0   10          -  525.33333      -     -    0s
*   24     2              15     550.0000000  528.00000  4.00%   2.7    0s
*  114     2               9     545.0000000  528.00000  3.12%   2.6    0s
*  167     8               8     538.0000000  528.00000  1.86%   2.6    0s
*  175     0              10     534.0000000  528.00000  1.12%   2.5    0s

Cutting planes:
  Gomory: 3
  Zero half: 2
  Lazy constraints: 30

Explored 185 nodes (495 simplex iterations) in 0.03 seconds
Thread count was 8 (of 8 available processors)

Optimal solution found (tolerance 1.00e-04)
Best objective 5.340000000000e+02, best bound 5.340000000000e+02, gap 0.0%
